Mo S                                    
   1.00000000000000     
     9.5819138682312968   -0.0000000003190426   -0.0000000000000000
    -4.7909575619601803    8.2981793607763947    0.0000000000000000
     0.0000000000000000   -0.0000000000000000   12.7341692152396959
   Mo   S 
    18    36
Direct
  0.1111109929999969  0.2222223280000009  0.2500000000000000
  0.1111109929999969  0.5555556420000016  0.2500000000000000
  0.1111109929999969  0.8888890149999966  0.2500000000000000
  0.4444443289999995  0.2222223280000009  0.2500000000000000
  0.4444443289999995  0.5555556420000016  0.2500000000000000
  0.4444443289999995  0.8888890149999966  0.2500000000000000
  0.7777776719999991  0.2222223280000009  0.2500000000000000
  0.7777776719999991  0.5555556420000016  0.2500000000000000
  0.7777776719999991  0.8888890149999966  0.2500000000000000
  0.2222223280000009  0.1111109929999969  0.7500000000000000
  0.2222223280000009  0.4444443289999995  0.7500000000000000
  0.2222223280000009  0.7777776719999991  0.7500000000000000
  0.5555556420000016  0.1111109929999969  0.7500000000000000
  0.5555556420000016  0.4444443289999995  0.7500000000000000
  0.5555556420000016  0.7777776719999991  0.7500000000000000
  0.8888890149999966  0.1111109929999969  0.7500000000000000
  0.8888890149999966  0.4444443289999995  0.7500000000000000
  0.8888890149999966  0.7777776719999991  0.7500000000000000
  0.2222223280000009  0.1111109929999969  0.3716501223718018
  0.2222223280000009  0.4444443289999995  0.3716501223718018
  0.2222223280000009  0.7777776719999991  0.3716501223718018
  0.5555556420000016  0.1111109929999969  0.3716501223718018
  0.5555556420000016  0.4444443289999995  0.3716501223718018
  0.5555556420000016  0.7777776719999991  0.3716501223718018
  0.8888890149999966  0.1111109929999969  0.3716501223718018
  0.8888890149999966  0.4444443289999995  0.3716501223718018
  0.8888890149999966  0.7777776719999991  0.3716501223718018
  0.1111109929999969  0.2222223280000009  0.8716501223718021
  0.1111109929999969  0.5555556420000016  0.8716501223718021
  0.1111109929999969  0.8888890149999966  0.8716501223718021
  0.4444443289999995  0.2222223280000009  0.8716501223718021
  0.4444443289999995  0.5555556420000016  0.8716501223718021
  0.4444443289999995  0.8888890149999966  0.8716501223718021
  0.7777776719999991  0.2222223280000009  0.8716501223718021
  0.7777776719999991  0.5555556420000016  0.8716501223718021
  0.7777776719999991  0.8888890149999966  0.8716501223718021
  0.2222223280000009  0.1111109929999969  0.1283498776281981
  0.2222223280000009  0.4444443289999995  0.1283498776281981
  0.2222223280000009  0.7777776719999991  0.1283498776281981
  0.5555556420000016  0.1111109929999969  0.1283498776281981
  0.5555556420000016  0.4444443289999995  0.1283498776281981
  0.5555556420000016  0.7777776719999991  0.1283498776281981
  0.8888890149999966  0.1111109929999969  0.1283498776281981
  0.8888890149999966  0.4444443289999995  0.1283498776281981
  0.8888890149999966  0.7777776719999991  0.1283498776281981
  0.1111109929999969  0.2222223280000009  0.6283498776281979
  0.1111109929999969  0.5555556420000016  0.6283498776281979
  0.1111109929999969  0.8888890149999966  0.6283498776281979
  0.4444443289999995  0.2222223280000009  0.6283498776281979
  0.4444443289999995  0.5555556420000016  0.6283498776281979
  0.4444443289999995  0.8888890149999966  0.6283498776281979
  0.7777776719999991  0.2222223280000009  0.6283498776281979
  0.7777776719999991  0.5555556420000016  0.6283498776281979
  0.7777776719999991  0.8888890149999966  0.6283498776281979
 
  0.00000000E+00  0.00000000E+00  0.00000000E+00
  0.00000000E+00  0.00000000E+00  0.00000000E+00
  0.00000000E+00  0.00000000E+00  0.00000000E+00
  0.00000000E+00  0.00000000E+00  0.00000000E+00
  0.00000000E+00  0.00000000E+00  0.00000000E+00
  0.00000000E+00  0.00000000E+00  0.00000000E+00
  0.00000000E+00  0.00000000E+00  0.00000000E+00
  0.00000000E+00  0.00000000E+00  0.00000000E+00
  0.00000000E+00  0.00000000E+00  0.00000000E+00
  0.00000000E+00  0.00000000E+00  0.00000000E+00
  0.00000000E+00  0.00000000E+00  0.00000000E+00
  0.00000000E+00  0.00000000E+00  0.00000000E+00
  0.00000000E+00  0.00000000E+00  0.00000000E+00
  0.00000000E+00  0.00000000E+00  0.00000000E+00
  0.00000000E+00  0.00000000E+00  0.00000000E+00
  0.00000000E+00  0.00000000E+00  0.00000000E+00
  0.00000000E+00  0.00000000E+00  0.00000000E+00
  0.00000000E+00  0.00000000E+00  0.00000000E+00
  0.00000000E+00  0.00000000E+00  0.00000000E+00
  0.00000000E+00  0.00000000E+00  0.00000000E+00
  0.00000000E+00  0.00000000E+00  0.00000000E+00
  0.00000000E+00  0.00000000E+00  0.00000000E+00
  0.00000000E+00  0.00000000E+00  0.00000000E+00
  0.00000000E+00  0.00000000E+00  0.00000000E+00
  0.00000000E+00  0.00000000E+00  0.00000000E+00
  0.00000000E+00  0.00000000E+00  0.00000000E+00
  0.00000000E+00  0.00000000E+00  0.00000000E+00
  0.00000000E+00  0.00000000E+00  0.00000000E+00
  0.00000000E+00  0.00000000E+00  0.00000000E+00
  0.00000000E+00  0.00000000E+00  0.00000000E+00
  0.00000000E+00  0.00000000E+00  0.00000000E+00
  0.00000000E+00  0.00000000E+00  0.00000000E+00
  0.00000000E+00  0.00000000E+00  0.00000000E+00
  0.00000000E+00  0.00000000E+00  0.00000000E+00
  0.00000000E+00  0.00000000E+00  0.00000000E+00
  0.00000000E+00  0.00000000E+00  0.00000000E+00
  0.00000000E+00  0.00000000E+00  0.00000000E+00
  0.00000000E+00  0.00000000E+00  0.00000000E+00
  0.00000000E+00  0.00000000E+00  0.00000000E+00
  0.00000000E+00  0.00000000E+00  0.00000000E+00
  0.00000000E+00  0.00000000E+00  0.00000000E+00
  0.00000000E+00  0.00000000E+00  0.00000000E+00
  0.00000000E+00  0.00000000E+00  0.00000000E+00
  0.00000000E+00  0.00000000E+00  0.00000000E+00
  0.00000000E+00  0.00000000E+00  0.00000000E+00
  0.00000000E+00  0.00000000E+00  0.00000000E+00
  0.00000000E+00  0.00000000E+00  0.00000000E+00
  0.00000000E+00  0.00000000E+00  0.00000000E+00
  0.00000000E+00  0.00000000E+00  0.00000000E+00
  0.00000000E+00  0.00000000E+00  0.00000000E+00
  0.00000000E+00  0.00000000E+00  0.00000000E+00
  0.00000000E+00  0.00000000E+00  0.00000000E+00
  0.00000000E+00  0.00000000E+00  0.00000000E+00
  0.00000000E+00  0.00000000E+00  0.00000000E+00
